============================[ Problem Statistics ]=============================|                                                                             ||  Number of variables:          4242                                         ||  Number of clauses:           10125                                         ||  Parse time:                   0.52 s                                       ||                                                                             |============================[ Search Statistics ]==============================| Conflicts |          ORIGINAL         |          LEARNT          | Progress ||           |    Vars  Clauses Literals |    Limit  Clauses Lit/Cl |          |===============================================================================|       100 |    1591     6330   818431 |     2321      100     53 | 62.501 % ||       250 |    1591     6330   818431 |     2553      250     75 | 62.495 % |===============================================================================restarts              : 3conflicts             : 287            (369 /sec)decisions             : 552            (0.00 % random) (710 /sec)propagations          : 11826          (15220 /sec)conflict literals     : 22422          (94.77 % deleted)CPU time              : 0.777 sSATISFIABLE